p tw 38 86
1 16
1 23
1 4
1 11
2 33
2 26
2 23
2 13
3 9
3 30
3 24
3 19
4 26
4 16
4 5
5 26
5 27
5 10
6 12
6 21
6 8
6 20
7 28
7 17
7 9
7 8
8 21
8 17
9 28
9 29
9 24
9 10
10 29
10 27
11 21
11 17
11 23
12 20
12 35
12 13
13 23
13 35
14 31
14 29
14 22
14 15
15 22
15 18
15 25
16 32
16 17
17 32
17 21
18 25
18 19
18 37
19 30
19 37
20 21
20 24
21 24
22 23
22 24
23 27
23 24
25 37
25 38
26 33
26 34
26 27
27 34
28 30
29 31
29 30
31 32
31 36
32 36
33 34
33 38
34 38
35 38
35 36
35 37
36 38
36 37
37 38
